100
[10,11,12,13,14,15,16,17,18,19,20,21,22,23,24,25,26,27,28,29,30,31,32,33,34,35,36,37,38,39,40,41,42,43,44,45,46,47,48,49,50,51,52,53,54,55,56,57,58,59,60,61,62,63,64,65,66,67,68,69,70,71,72,73,74,75,76,77,78,79,80]
[17,4,6,12,13,15,16,12,12,10,16,8,12,21,7,3,8,12,7,11,10,8,11,12,8,8,9,13,7,13,12,11,10,11,12,9,10,9,10,5,12,12,12,9,11,11,13,10,13,8,15,12,5,7,14,10,9,12,12,17,10,12,8,5,15,11,11,7,10,8,9]
